
Gurobi 10.0.1 (linux64) logging started Thu 10 Aug 2023 05:51:22 PM CDT

Set parameter LogFile to value "/home/dlcole3/graph_abstraction/plasmoexamples/SHP_serial/SHP_reserve_requirements/gurobi_logs/logfile3.log"
Set parameter NodefileStart to value 0.0005
Set parameter TimeLimit to value 36000
Gurobi Optimizer version 10.0.1 build v10.0.1rc0 (linux64)

CPU model: Intel(R) Xeon(R) CPU E5-2698 v4 @ 2.20GHz, instruction set [SSE2|AVX|AVX2]
Thread count: 40 physical cores, 80 logical processors, using up to 8 threads


Warning: excessive time spent in model updates.
Consider calling update less frequently.

Optimize a model with 1105538 rows, 641709 columns and 4644125 nonzeros
Model fingerprint: 0x0931925e
Variable types: 599982 continuous, 41727 integer (41727 binary)
Coefficient statistics:
  Matrix range     [5e-02, 2e+04]
  Objective range  [2e-01, 8e+04]
  Bounds range     [5e-02, 2e+04]
  RHS range        [2e-03, 7e+03]
Presolve removed 269267 rows and 115685 columns (presolve time = 5s) ...
Presolve removed 276987 rows and 116505 columns (presolve time = 10s) ...
Presolve removed 278960 rows and 119540 columns (presolve time = 15s) ...
Presolve removed 287760 rows and 124111 columns (presolve time = 20s) ...
Presolve removed 292300 rows and 125008 columns (presolve time = 25s) ...
Presolve removed 292320 rows and 125028 columns (presolve time = 30s) ...
Presolve removed 292350 rows and 125058 columns (presolve time = 35s) ...
Presolve removed 292650 rows and 125078 columns (presolve time = 40s) ...
Sparsify removed 204436 nonzeros (5%)
Presolve removed 292650 rows and 123664 columns
Presolve time: 43.22s
Presolved: 812888 rows, 518045 columns, 3975156 nonzeros
Variable types: 484381 continuous, 33664 integer (33602 binary)

Deterministic concurrent LP optimizer: primal simplex, dual simplex, and barrier
Showing barrier log only...

Root barrier log...

Elapsed ordering time = 5s
Elapsed ordering time = 19s
Elapsed ordering time = 21s
Elapsed ordering time = 25s
Elapsed ordering time = 32s
Elapsed ordering time = 36s
Elapsed ordering time = 40s
Elapsed ordering time = 45s
Elapsed ordering time = 46s
Elapsed ordering time = 50s
Elapsed ordering time = 55s
Elapsed ordering time = 59s
Elapsed ordering time = 60s
Elapsed ordering time = 65s
Ordering time: 68.99s

Barrier statistics:
 Dense cols : 215
 AA' NZ     : 2.375e+07
 Factor NZ  : 3.459e+08 (roughly 3.0 GB of memory)
 Factor Ops : 1.560e+12 (roughly 13 seconds per iteration)
 Threads    : 5

                  Objective                Residual
Iter       Primal          Dual         Primal    Dual     Compl     Time
   0  -2.22931842e+11 -1.80426880e+13  1.23e+04 8.50e+03  1.15e+08   132s
   1  -1.59935210e+11 -1.33197544e+13  9.23e+03 1.59e+07  7.63e+07   140s
   2  -1.22179621e+11 -1.16945055e+13  7.21e+03 1.10e+07  5.84e+07   153s
   3  -6.30991465e+10 -8.68012430e+12  4.05e+03 4.66e+06  3.26e+07   166s
   4  -2.07073710e+10 -3.26967990e+12  1.57e+03 4.40e+00  1.18e+07   180s
   5  -3.26735334e+09 -1.40963097e+12  5.47e+02 1.40e+00  3.92e+06   194s
   6   4.44514786e+09 -7.00405104e+11  1.27e+02 6.56e-01  1.03e+06   209s
   7   5.98911413e+09 -3.06108641e+11  3.98e+01 9.66e-02  3.20e+05   224s
   8   5.66530066e+09 -1.12639581e+11  1.29e+01 4.77e-02  9.75e+04   239s
   9   3.52804811e+09 -4.02898899e+10  3.89e+00 9.37e-03  3.02e+04   254s
  10   1.62266931e+09 -1.76572974e+10  1.74e+00 8.62e-04  1.25e+04   268s
  11   2.82278499e+08 -3.01635439e+09  2.06e-01 1.62e-03  1.98e+03   286s
  12   8.77223384e+07 -2.98099316e+08  2.31e-03 5.44e-04  2.25e+02   303s
  13   6.97685537e+07 -2.75294259e+07  5.04e-04 7.02e-05  5.67e+01   321s
  14   5.62104343e+07  2.22214441e+07  7.45e-05 4.87e-04  1.98e+01   338s
  15   5.43638602e+07  3.15774907e+07  5.34e-05 3.33e-04  1.33e+01   351s
  16   5.09307541e+07  3.89027884e+07  2.39e-05 1.78e-04  7.00e+00   368s
  17   5.00001868e+07  4.22289087e+07  1.77e-05 1.03e-04  4.53e+00   383s
  18   4.88451567e+07  4.43155021e+07  1.06e-05 4.48e-05  2.64e+00   397s
  19   4.85282565e+07  4.47363871e+07  8.75e-06 3.78e-05  2.21e+00   410s
  20   4.83577236e+07  4.49239413e+07  7.80e-06 3.49e-05  2.00e+00   425s
  21   4.79400228e+07  4.55049239e+07  5.42e-06 2.55e-05  1.42e+00   438s
  22   4.77536551e+07  4.56178144e+07  4.40e-06 2.39e-05  1.24e+00   452s
  23   4.76606080e+07  4.57357848e+07  3.90e-06 2.16e-05  1.12e+00   466s
  24   4.75934475e+07  4.61108967e+07  3.54e-06 1.60e-05  8.63e-01   479s
  25   4.74047661e+07  4.62269781e+07  2.55e-06 1.36e-05  6.86e-01   493s
  26   4.73103892e+07  4.63682279e+07  2.06e-06 1.04e-05  5.49e-01   506s
  27   4.71920062e+07  4.64355773e+07  1.45e-06 9.01e-06  4.40e-01   519s
  28   4.71175112e+07  4.65510766e+07  1.07e-06 6.70e-06  3.30e-01   533s
  29   4.70538172e+07  4.66619056e+07  7.52e-07 4.57e-06  2.28e-01   549s
  30   4.70102216e+07  4.67250633e+07  5.40e-07 3.28e-06  1.66e-01   564s
  31   4.69754709e+07  4.67796183e+07  5.93e-07 2.22e-06  1.14e-01   579s
  32   4.69477132e+07  4.68128387e+07  9.41e-07 1.57e-06  7.85e-02   596s
  33   4.69229689e+07  4.68535578e+07  1.08e-06 7.12e-07  4.04e-02   620s
  34   4.69107294e+07  4.68677855e+07  1.11e-06 4.20e-07  2.50e-02   644s
  35   4.69030266e+07  4.68779325e+07  1.94e-06 2.09e-07  1.46e-02   677s
  36   4.68965060e+07  4.68823419e+07  1.89e-06 1.20e-07  8.25e-03   699s
  37   4.68935202e+07  4.68852802e+07  1.71e-06 6.23e-08  4.80e-03   725s
  38   4.68924143e+07  4.68864708e+07  1.50e-06 3.75e-08  3.46e-03   747s
  39   4.68908716e+07  4.68870261e+07  1.15e-06 2.66e-08  2.24e-03   769s
  40   4.68904668e+07  4.68872779e+07  1.13e-06 2.19e-08  1.86e-03   789s
  41   4.68897111e+07  4.68875922e+07  9.28e-07 1.57e-08  1.23e-03   807s
  42   4.68893216e+07  4.68879289e+07  6.79e-07 9.53e-09  8.11e-04   826s
  43   4.68890510e+07  4.68881645e+07  6.06e-07 5.27e-09  5.16e-04   845s
  44   4.68888879e+07  4.68882439e+07  4.60e-07 1.28e-08  3.75e-04   862s
  45   4.68887803e+07  4.68883027e+07  3.60e-07 5.61e-09  2.78e-04   878s
  46   4.68887551e+07  4.68883187e+07  3.33e-07 5.91e-09  2.54e-04   893s
  47   4.68886885e+07  4.68883505e+07  2.82e-07 1.10e-08  1.97e-04   909s
  48   4.68886278e+07  4.68883843e+07  4.42e-07 7.03e-09  1.42e-04   928s
  49   4.68885696e+07  4.68883989e+07  4.77e-07 6.07e-09  9.94e-05   946s
  50   4.68885457e+07  4.68884198e+07  3.93e-07 8.37e-09  7.33e-05   965s
  51   4.68885147e+07  4.68884451e+07  2.58e-07 1.37e-08  4.05e-05   984s

Barrier solved model in 51 iterations and 984.09 seconds (964.67 work units)
Optimal objective 4.68885147e+07


Root crossover log...

  346801 DPushes remaining with DInf 1.3410681e-01               985s
  106318 DPushes remaining with DInf 0.0000000e+00               991s
   74137 DPushes remaining with DInf 0.0000000e+00               996s
   57610 DPushes remaining with DInf 0.0000000e+00              1001s
   46641 DPushes remaining with DInf 0.0000000e+00              1005s
   36724 DPushes remaining with DInf 0.0000000e+00              1011s
   30484 DPushes remaining with DInf 0.0000000e+00              1016s
   28147 DPushes remaining with DInf 0.0000000e+00              1021s
   25893 DPushes remaining with DInf 0.0000000e+00              1025s
   22997 DPushes remaining with DInf 0.0000000e+00              1031s
   21473 DPushes remaining with DInf 0.0000000e+00              1035s
   18509 DPushes remaining with DInf 0.0000000e+00              1040s
   14658 DPushes remaining with DInf 0.0000000e+00              1046s
   12325 DPushes remaining with DInf 0.0000000e+00              1050s
    8954 DPushes remaining with DInf 0.0000000e+00              1056s
    4914 DPushes remaining with DInf 0.0000000e+00              1061s
    2958 DPushes remaining with DInf 0.0000000e+00              1066s
    1120 DPushes remaining with DInf 0.0000000e+00              1071s
       0 DPushes remaining with DInf 0.0000000e+00              1075s

  264877 PPushes remaining with PInf 4.6323884e-02              1075s
   62050 PPushes remaining with PInf 5.7231007e-01              1082s
   32418 PPushes remaining with PInf 5.2791782e-01              1086s
   20732 PPushes remaining with PInf 5.2062260e-01              1090s
    9436 PPushes remaining with PInf 3.8402777e-01              1099s
    7594 PPushes remaining with PInf 4.4126068e-01              1100s
       0 PPushes remaining with PInf 7.1200469e+00              1106s

  Push phase complete: Pinf 7.1200469e+00, Dinf 8.5055281e+07   1106s


Root simplex log...

Iteration    Objective       Primal Inf.    Dual Inf.      Time
  424498    4.6888507e+07   0.000000e+00   8.505528e+07   1107s
  425412    4.6888461e+07   0.000000e+00   1.080807e+05   1111s
  426783    4.6888460e+07   0.000000e+00   8.384110e+01   1115s
  427837    4.6888461e+07   0.000000e+00   0.000000e+00   1119s
  427837    4.6888461e+07   0.000000e+00   0.000000e+00   1121s
Concurrent spin time: 68.38s

Solved with barrier

Root relaxation: objective 4.688846e+07, 427837 iterations, 1142.07 seconds (1075.39 work units)

    Nodes    |    Current Node    |     Objective Bounds      |     Work
 Expl Unexpl |  Obj  Depth IntInf | Incumbent    BestBd   Gap | It/Node Time

     0     0 4.6888e+07    0  613          - 4.6888e+07      -     - 1210s
     0     0 4.6888e+07    0  613          - 4.6888e+07      -     - 1212s
     0     0 4.6898e+07    0  510          - 4.6898e+07      -     - 1310s
H    0     0                    1.157225e+10 4.6898e+07   100%     - 1332s
     0     0 4.6898e+07    0  538 1.1572e+10 4.6898e+07   100%     - 1335s
H    0     0                    1.157224e+10 4.6898e+07   100%     - 1336s
H    0     0                    1.157224e+10 4.6898e+07   100%     - 1362s
     0     0 4.6898e+07    0  523 1.1572e+10 4.6898e+07   100%     - 2517s
     0     0 4.6898e+07    0  523 1.1572e+10 4.6898e+07   100%     - 2519s
H    0     0                    9.895382e+09 4.6898e+07   100%     - 2644s
     0     0 4.6899e+07    0  491 9.8954e+09 4.6899e+07   100%     - 2680s
     0     0 4.6899e+07    0  469 9.8954e+09 4.6899e+07   100%     - 2730s
     0     0 4.6901e+07    0  448 9.8954e+09 4.6901e+07   100%     - 2762s
     0     0 4.6902e+07    0  448 9.8954e+09 4.6902e+07   100%     - 2809s
     0     0 4.6902e+07    0  475 9.8954e+09 4.6902e+07   100%     - 2814s
     0     0 4.6902e+07    0  490 9.8954e+09 4.6902e+07   100%     - 2816s
     0     0 4.6902e+07    0  450 9.8954e+09 4.6902e+07   100%     - 2818s
     0     0 4.6903e+07    0  389 9.8954e+09 4.6903e+07   100%     - 2864s
     0     0 4.6903e+07    0  404 9.8954e+09 4.6903e+07   100%     - 2923s
     0     0 4.6903e+07    0  404 9.8954e+09 4.6903e+07   100%     - 2928s
     0     0 4.6905e+07    0  400 9.8954e+09 4.6905e+07   100%     - 2985s
     0     0 4.6906e+07    0  414 9.8954e+09 4.6906e+07   100%     - 3027s
     0     0 4.6906e+07    0  391 9.8954e+09 4.6906e+07   100%     - 3032s
     0     0 4.6906e+07    0  391 9.8954e+09 4.6906e+07   100%     - 3036s
     0     0 4.6907e+07    0  340 9.8954e+09 4.6907e+07   100%     - 3073s
     0     0 4.6907e+07    0  340 9.8954e+09 4.6907e+07   100%     - 3143s
     0     0 4.6908e+07    0  336 9.8954e+09 4.6908e+07   100%     - 3172s
     0     0 4.6908e+07    0  337 9.8954e+09 4.6908e+07   100%     - 3219s
     0     0 4.6908e+07    0  337 9.8954e+09 4.6908e+07   100%     - 3222s
     0     0 4.6919e+07    0  369 9.8954e+09 4.6919e+07   100%     - 3258s
     0     0 4.6919e+07    0  370 9.8954e+09 4.6919e+07   100%     - 3305s
     0     0 4.6919e+07    0  370 9.8954e+09 4.6919e+07   100%     - 3308s
     0     0 4.6920e+07    0  355 9.8954e+09 4.6920e+07   100%     - 3337s
     0     0 4.6921e+07    0  351 9.8954e+09 4.6921e+07   100%     - 3360s
     0     0 4.6923e+07    0  354 9.8954e+09 4.6923e+07   100%     - 3386s
     0     0 4.6923e+07    0  354 9.8954e+09 4.6923e+07   100%     - 3390s
     0     0 4.6926e+07    0  339 9.8954e+09 4.6926e+07   100%     - 3424s
     0     0 4.6926e+07    0  340 9.8954e+09 4.6926e+07   100%     - 3466s
     0     0 4.6934e+07    0  347 9.8954e+09 4.6934e+07   100%     - 3503s
     0     0 4.6934e+07    0  348 9.8954e+09 4.6934e+07   100%     - 3546s
     0     0 4.6934e+07    0  348 9.8954e+09 4.6934e+07   100%     - 3551s
     0     0 4.6934e+07    0  348 9.8954e+09 4.6934e+07   100%     - 3556s
     0     0 4.6936e+07    0  341 9.8954e+09 4.6936e+07   100%     - 3590s
     0     0 4.6936e+07    0  341 9.8954e+09 4.6936e+07   100%     - 3643s
     0     0 4.6936e+07    0  341 9.8954e+09 4.6936e+07   100%     - 3647s
     0     0 4.6938e+07    0  331 9.8954e+09 4.6938e+07   100%     - 3683s
     0     0 4.6938e+07    0  328 9.8954e+09 4.6938e+07   100%     - 3727s
     0     0 4.6938e+07    0  328 9.8954e+09 4.6938e+07   100%     - 3731s
     0     0 4.6939e+07    0  346 9.8954e+09 4.6939e+07   100%     - 3769s
     0     0 4.6939e+07    0  354 9.8954e+09 4.6939e+07   100%     - 3794s
     0     0 4.6939e+07    0  354 9.8954e+09 4.6939e+07   100%     - 3842s
     0     0 4.6939e+07    0  354 9.8954e+09 4.6939e+07   100%     - 3846s
     0     0 4.6939e+07    0  320 9.8954e+09 4.6939e+07   100%     - 3877s
     0     0 4.6939e+07    0  320 9.8954e+09 4.6939e+07   100%     - 3920s
     0     0 4.6939e+07    0  320 9.8954e+09 4.6939e+07   100%     - 3923s
     0     0 4.6939e+07    0  285 9.8954e+09 4.6939e+07   100%     - 3950s
     0     0 4.6939e+07    0  285 9.8954e+09 4.6939e+07   100%     - 4010s
     0     0 4.6940e+07    0  277 9.8954e+09 4.6940e+07   100%     - 4036s
     0     0 4.6940e+07    0  275 9.8954e+09 4.6940e+07   100%     - 4078s
     0     0 4.6940e+07    0  280 9.8954e+09 4.6940e+07   100%     - 4103s
     0     0 4.6940e+07    0  280 9.8954e+09 4.6940e+07   100%     - 4157s
     0     0 4.6940e+07    0  280 9.8954e+09 4.6940e+07   100%     - 4166s
     0     0 4.6940e+07    0  280 9.8954e+09 4.6940e+07   100%     - 4183s
     0     0 4.6940e+07    0  281 9.8954e+09 4.6940e+07   100%     - 4190s
     0     0 4.6940e+07    0  281 9.8954e+09 4.6940e+07   100%     - 4196s
     0     0 4.6940e+07    0  286 9.8954e+09 4.6940e+07   100%     - 4203s
     0     0 4.6940e+07    0  286 9.8954e+09 4.6940e+07   100%     - 4215s
H    0     2                    9.893586e+09 4.6940e+07   100%     - 4399s
     0     2 4.6940e+07    0  287 9.8936e+09 4.6940e+07   100%     - 4399s
     1     4 4.7304e+07    1  349 9.8936e+09 4.6940e+07   100% 37265 4508s
     3     8 4.7307e+07    2  317 9.8936e+09 4.6978e+07   100% 14638 4606s
     7    16 4.7307e+07    3  341 9.8936e+09 4.7038e+07   100% 12931 4647s
    15    24 4.7310e+07    4  364 9.8936e+09 4.7042e+07   100%  7272 4681s
    23    32 4.7311e+07    4  320 9.8936e+09 4.7042e+07   100%  4958 4736s
H   31    39                    9.891751e+09 4.7042e+07   100%  4486 4858s
H   38    39                    9.890970e+09 4.7042e+07   100%  3789 4859s
    39    46 4.7312e+07    5  324 9.8910e+09 4.7042e+07   100%  3696 4886s
    47    56 4.7312e+07    6  351 9.8910e+09 4.7042e+07   100%  3154 4916s
    58    66 4.7313e+07    8  352 9.8910e+09 4.7042e+07   100%  2768 4940s
    69    71 4.7315e+07    9  315 9.8910e+09 4.7042e+07   100%  2420 4976s
    77    78 4.7319e+07   10  354 9.8910e+09 4.7042e+07   100%  2241 5044s
    87    84 4.7319e+07   10  364 9.8910e+09 4.7042e+07   100%  2181 5103s
    97    97 4.7323e+07   11  347 9.8910e+09 4.7042e+07   100%  2118 5128s
   110   107 4.7324e+07   12  335 9.8910e+09 4.7042e+07   100%  1930 5288s
   120   122 4.7325e+07   13  332 9.8910e+09 4.7042e+07   100%  2068 5341s
   135   134 4.7327e+07   14  353 9.8910e+09 4.7042e+07   100%  1979 5377s
   147   143 4.7329e+07   16  344 9.8910e+09 4.7042e+07   100%  1871 5413s
   157   149 4.7330e+07   17  326 9.8910e+09 4.7042e+07   100%  1778 5460s
   169   159 4.7330e+07   18  326 9.8910e+09 4.7042e+07   100%  1741 5584s
H  182   159                    9.840817e+09 4.7042e+07   100%  1641 5584s
   185   166 4.7330e+07   19  356 9.8408e+09 4.7042e+07   100%  1627 5629s
H  196   166                    1.469350e+09 4.7042e+07  96.8%  1575 5629s
   197   169 4.7330e+07   20  303 1.4693e+09 4.7042e+07  96.8%  1569 5665s
H  215   173                    1.467617e+09 4.7042e+07  96.8%  1467 5803s
H  217   173                    1.457440e+09 4.7042e+07  96.8%  1454 5804s
H  223   173                    1.453451e+09 4.7042e+07  96.8%  1419 5804s
   227   178 4.7331e+07   25  307 1.4535e+09 4.7042e+07  96.8%  1400 5854s
   243   185 4.7334e+07   27  289 1.4535e+09 4.7042e+07  96.8%  1321 5893s
   266   191 4.7334e+07   30  284 1.4535e+09 4.7042e+07  96.8%  1216 5959s
   288   194 4.7334e+07   33  248 1.4535e+09 4.7042e+07  96.8%  1149 6134s
H  290   194                    1.761154e+08 4.7042e+07  73.3%  1142 6134s
   291   194 4.7103e+07   31  325 1.7612e+08 4.7042e+07  73.3%  1139 6135s
   301   209 4.7335e+07   35  246 1.7612e+08 4.7042e+07  73.3%  1106 6175s
H  331   212                    4.711367e+07 4.7042e+07  0.15%  1032 8688s

Cutting planes:
  Learned: 3
  Gomory: 124
  Implied bound: 270
  MIR: 209
  StrongCG: 2
  Flow cover: 838
  RLT: 107
  Relax-and-lift: 12

Explored 339 nodes (1238338 simplex iterations) in 8688.72 seconds (10995.47 work units)
Thread count was 8 (of 80 available processors)

Solution count 10: 4.71137e+07 4.71137e+07 1.76115e+08 ... 9.89175e+09

Optimal solution found (tolerance 5.00e-02)
Best objective 4.711367465173e+07, best bound 4.704193077525e+07, gap 0.1523%

User-callback calls 1781171, time in user-callback 5.52 sec
